83,90
12,33
93,12
50,42
55,67
48,86
42,88
60,22
53,46
38,55
11,97
79,44
46,44
74,86
47,23
48,79
70,39
45,88
74,87
44,38
51,71
53,47
25,72
61,45
77,21
64,49
36,21
17,99
59,92
16,26
33,78
32,29
76,13
22,46
35,63
76,52
25,97
58,70
50,91
27,60
82,64
26,42
65,63
77,70
81,95
89,46
51,78
73,21
22,24
62,92

103
108
117
143
131
148
108
145
118
